[73, 71, 70, 60, 66, 62, 60, 63, 63, 61, 237, 241, 243, 255, 275, 242, 222, 246, 239, 247, 969, 982, 1022, 1022, 975, 969, 942, 1011, 1018, 1006, 3839, 4487, 4023, 3752, 3829, 3795, 3955, 3740, 3823, 4045, 15433, 16114, 17049, 16868, 18624, 18090, 16207, 15807, 18036, 16187]
